(assert (forall ((pkt_0_4_6_0  Int  )(state_group_0_state_0_5_7_0  Int  )(state_group_0_state_1_6_8_0  Int  )) (let ((_n0 state_group_0_state_0_5_7_0 ))
(let ((_n1 2 ))
(let ((_n2 (ite (=  _n0  1)  _n1   _n0  ) ))
(let ((_n3 state_group_0_state_1_6_8_0 ))
(let ((_n4 false ))
(let ((_n5 (ite (=  _n0  1)  (ite  _n4  1 0)   _n3  ) ))
(let ((_n6 3 ))
(let ((_n7 (ite (=  _n5  999)  _n6   _n2  ) ))
(let ((_n8 (ite (=  _n2  2)  _n7   _n2  ) ))
(let ((_n9 (=   _n0   _n1 ) ))
(let ((_n10 true ))
(let ((_n11 (ite (=  _n0  2)  (ite  _n4  1 0)   _n0  ) ))
(let ((_n12 (=   _n11   (ite  _n10  1 0) ) ))
(let ((_n13 (ite (=  _n0  2)  _n4   _n12  ) ))
(let ((_n14 998 ))
(let ((_n15 (not  _n13 ) ))
(let ((_n16 (or   _n15   _n9 ) ))
(let ((_n17 (ite  _n16   (ite  _n4  1 0)   _n3  ) ))
(let ((_n18 (=   _n17   _n14 ) ))
(let ((_n19 (not  _n18 ) ))
(let ((_n20 (not  _n16 ) ))
(let ((_n21 (and   _n20   _n19 ) ))
(let ((_n22 (or   _n21   _n16 ) ))
(let ((_n23 (ite  _n22   (ite  _n4  1 0)   _n1  ) ))
(let ((_n24 (ite  _n22   _n0   (ite  _n4  1 0)  ) ))
(let ((_n25 (+   _n24   _n23 ) ))
(let ((_n26 (not  _n21 ) ))
(let ((_n27 (or   _n26   _n16 ) ))
(let ((_n28 (ite  _n27   (ite  _n4  1 0)   _n1  ) ))
(let ((_n29 (ite  _n27   _n0   (ite  _n4  1 0)  ) ))
(let ((_n30 (+   _n29   _n28 ) ))
(let ((_n31 (ite (=  (ite  _n21  1 0)  1)  _n30   _n25  ) ))
(let ((_n32 (ite (=  (ite  _n13  1 0)  1)  _n31   _n0  ) ))
(let ((_n33 999 ))
(let ((_n34 (ite (=  _n0  2)  _n3   (ite  _n4  1 0)  ) ))
(let ((_n35 (=   _n34   _n33 ) ))
(let ((_n36 (ite (=  _n0  2)  _n35   _n4  ) ))
(let ((_n37 (and   _n36   _n9 ) ))
(let ((_n38 (ite  _n37   _n6   (ite  _n4  1 0)  ) ))
(let ((_n39 (ite  _n37   (ite  _n4  1 0)   _n0  ) ))
(let ((_n40 (+   _n39   _n38 ) ))
(let ((_n41 (ite (=  (ite  _n36  1 0)  1)  _n40   _n0  ) ))
(let ((_n42 (ite (=  (ite  _n9  1 0)  1)  _n41   _n32  ) ))
(let ((_n43 (=   _n42   _n8 ) ))
(let ((_n45 (+   _n5   (ite  _n10  1 0) ) ))
(let ((_n46 (ite (=  _n2  2)  _n45   _n5  ) ))
(let ((_n47 (ite  _n22   (ite  _n4  1 0)   _n6  ) ))
(let ((_n48 (-  _n47 )))
(let ((_n49 4 ))
(let ((_n50 (ite  _n22   (ite  _n4  1 0)   _n49  ) ))
(let ((_n51 (+   _n50   _n48 ) ))
(let ((_n52 (ite  _n22   (ite  _n4  1 0)   _n51  ) ))
(let ((_n53 (+   _n3   _n52 ) ))
(let ((_n54 (-  _n28 )))
(let ((_n55 (ite  _n27   (ite  _n4  1 0)   _n6  ) ))
(let ((_n56 (+   _n55   _n54 ) ))
(let ((_n57 (ite  _n27   (ite  _n4  1 0)   _n56  ) ))
(let ((_n58 (ite  _n27   _n3   (ite  _n4  1 0)  ) ))
(let ((_n59 (+   _n58   _n57 ) ))
(let ((_n60 (ite (=  (ite  _n21  1 0)  1)  _n59   _n53  ) ))
(let ((_n61 (ite (=  (ite  _n13  1 0)  1)  _n60   _n3  ) ))
(let ((_n62 (not  _n9 ) ))
(let ((_n63 (or   _n36   _n62 ) ))
(let ((_n64 (not  _n63 ) ))
(let ((_n65 (+   _n3   (ite  _n64  1 0) ) ))
(let ((_n66 (ite  _n37   _n1   (ite  _n4  1 0)  ) ))
(let ((_n67 (ite  _n37   _n14   (ite  _n4  1 0)  ) ))
(let ((_n68 (+   _n67   _n66 ) ))
(let ((_n69 (ite  _n37   _n68   (ite  _n4  1 0)  ) ))
(let ((_n70 (ite  _n37   (ite  _n4  1 0)   _n3  ) ))
(let ((_n71 (+   _n70   _n69 ) ))
(let ((_n72 (ite (=  (ite  _n36  1 0)  1)  _n71   _n65  ) ))
(let ((_n73 (ite (=  (ite  _n9  1 0)  1)  _n72   _n61  ) ))
(let ((_n74 (=   _n73   _n46 ) ))
(let ((_n76 pkt_0_4_6_0 ))
(implies  (and (and (>= state_group_0_state_1_6_8_0 0) (< state_group_0_state_1_6_8_0 1024 ))  (and (and (>= state_group_0_state_0_5_7_0 0) (< state_group_0_state_0_5_7_0 1024 ))  (and (>= pkt_0_4_6_0 0) (< pkt_0_4_6_0 1024 )) ) )   (and  _n43  _n74 )  ))))))))))))))))))))))))))))))))))))))))))))))))))))))))))))))))))))))))))))))
(check-sat)
(get-model)
(exit)